Route #1: 243 244 245 246 247 248 249 250 251 291 292 293 294 295 296 297 298 299 300 301 302 303 304 305 306 307 308 309 310 311 271 270 269 229
Route #2: 240 239 279 280 241 242 282 283 284 285 286 287 288 289 290 281 320 319 312 313 314 315 316 317 318 278 277 272 273 274 275 276 236 235 201 202
Route #3: 123 124 164 163 203 204 205 206 207 208 209 210 211 212 252 253 254 255 256 257 258 259 260 261 262 263 264 265 266 267 268 228 227 187 188 148
Route #4: 92 93 133 134 135 175 176 177 178 174 173 213 214 215 216 217 218 219 220 221 222 223 224 225 226 186 185 182 183 184 144 143 142 102
Route #5: 111 112 113 114 116 117 118 120 119 159 160 121 122 162 161 200 199 195 196 197 237 238 198 158 157 156 152 153 154 155 115 81 82 83 84 44
Route #6: 58 59 60 61 101 103 104 105 145 146 147 149 189 190 230 231 232 233 234 194 193 192 191 151 150 110 109 108 106 107 67 65 66 25
Route #7: 8 9 7 47 46 45 85 86 87 127 128 129 126 125 165 166 167 168 169 170 171 172 132 130 131 91 89 90 88 48 49 50 51 11
Route #8: 17 18 19 20 21 22 62 63 64 68 69 70 71 72 73 74 75 76 77 78 79 80 41 42 43 3 4 5 6
Route #9: 10 12 52 53 54 94 95 96 136 137 138 139 179 180 181 141 140 100 99 98 97 57 55 56 16 15 13 14
Route #10: 2 1 40 39 38 33 34 35 36 37 23 24 26 27 28 29 30 31 32
Cost 8968.134400805526